language ESSENCE' 1.0

letting jobs = 102
letting horizon = 779
letting resourcesRenew = 2
letting resourcesNonrenew = 2
letting resourceLimits = [59, 55, 508, 525]
letting successors = [[2, 3, 4, 5, 6, 7, 8, 9, 10, 11, 12, 13, 14, 15, 16, 17, 18, 19, 21, 22, 24, 25, 27, 28, 29, 32, 33, 39, 40, 42, 45, 55], [82, 72, 67, 64, 60, 59, 54, 53, 50, 44, 37, 36, 35, 31, 30, 26], [82, 72, 71, 70, 67, 65, 63, 62, 61, 60, 56, 53, 52, 51, 49, 47, 44, 38], [83, 74, 72, 71, 67, 64, 61, 59, 53, 52, 51, 49, 46, 37, 23], [100, 86, 67, 63, 62, 61, 59, 54, 46, 43, 41, 20], [89, 88, 85, 84, 83, 82, 72, 70, 69, 65, 64, 62, 61, 60, 59, 58, 49, 37, 31], [100, 86, 85, 70, 62, 61, 56, 43, 38, 37, 34, 31], [101, 100, 86, 85, 70, 67, 63, 61, 58, 56, 31, 20], [100, 97, 83, 82, 72, 66, 65, 63, 62, 61, 60, 56, 53, 38, 36], [101, 95, 85, 72, 70, 63, 60, 57, 53, 52, 50, 48, 41, 38], [93, 89, 86, 83, 82, 70, 68, 67, 61, 59, 58, 56, 52, 23], [85, 83, 82, 74, 72, 71, 70, 67, 66, 64, 62, 48, 37, 36], [98, 96, 95, 94, 90, 88, 86, 85, 84, 82, 73, 72, 71, 64, 63, 61, 60, 57, 53, 52, 51], [100, 97, 95, 91, 88, 87, 85, 82, 79, 78, 73, 70, 69, 66, 65, 63, 38], [100, 97, 88, 85, 74, 73, 65, 64, 59, 58, 53, 35], [97, 95, 90, 87, 86, 83, 70, 69, 63, 60, 53, 38], [95, 90, 88, 85, 83, 73, 65, 63, 56, 52, 38], [98, 94, 93, 86, 83, 82, 81, 77, 72, 69, 67, 60, 52, 46], [93, 91, 89, 88, 86, 83, 80, 70, 66, 63, 62, 58, 48], [98, 96, 95, 94, 83, 71, 69, 65, 60, 57, 53, 52, 51], [99, 97, 96, 86, 85, 81, 80, 72, 67, 63, 61, 47], [99, 98, 97, 96, 95, 93, 88, 86, 85, 83, 81, 80, 78, 70, 63, 57, 56], [100, 99, 97, 92, 88, 80, 79, 78, 69, 66, 65, 63, 62, 57], [101, 99, 97, 96, 95, 94, 93, 92, 91, 89, 87, 86, 85, 82, 81, 80, 79, 78, 77, 71, 69], [100, 99, 93, 92, 90, 84, 81, 73, 70, 63, 56, 52], [96, 91, 88, 86, 83, 80, 70, 65, 63, 58, 56], [99, 98, 96, 93, 91, 89, 88, 80, 79, 66, 65, 63, 59], [99, 98, 96, 94, 85, 81, 64, 54, 52], [99, 98, 96, 95, 92, 89, 87, 86, 85, 82, 79, 72, 52], [99, 98, 96, 95, 94, 93, 85, 79, 77, 70, 69, 52], [99, 98, 94, 93, 90, 81, 77, 73, 71, 57, 52], [97, 96, 94, 93, 90, 88, 87, 85, 84, 81, 79, 76, 74, 63], [98, 97, 95, 94, 93, 92, 91, 90, 88, 81, 80, 79, 76, 63], [98, 95, 94, 92, 91, 90, 88, 83, 81, 80, 79, 78, 75, 69], [98, 93, 92, 91, 90, 86, 84, 81, 80, 79, 76, 70, 63], [95, 94, 93, 89, 88, 87, 86, 80, 79, 78, 77, 75, 69], [99, 98, 94, 93, 92, 91, 87, 80, 79, 78, 76, 63], [98, 96, 94, 89, 84, 80, 75, 64, 59], [101, 98, 96, 95, 93, 91, 81, 80, 78, 77, 75, 69], [96, 95, 87, 84, 82, 80, 79, 78, 76, 70, 63], [93, 92, 91, 88, 78, 77, 76, 75, 66], [98, 96, 92, 89, 86, 73, 65, 63], [94, 90, 88, 77, 64, 60], [101, 100, 95, 93, 90, 85, 81, 79, 78, 76], [98, 97, 95, 93, 84, 80, 78, 77, 76, 75], [97, 96, 95, 91, 89, 85, 84, 79, 70], [100, 98, 95, 94, 93, 92, 88, 78, 69], [100, 99, 97, 92, 81, 79, 77, 75], [95, 91, 86, 81, 78, 77, 75], [99, 92, 90, 79, 78, 69], [92, 89, 87, 78, 77, 76], [97, 91, 80, 78, 75], [91, 81, 79, 77, 76], [79, 78, 77, 76, 75], [81, 80, 77, 76, 75], [94, 79, 75, 69], [91, 87, 76, 75], [95, 78, 76, 75], [81, 77, 76], [99, 80, 78], [91, 78, 76], [96, 95, 77], [77, 75], [93, 92], [81, 75], [94, 90], [92, 79], [92, 78], [76], [75], [75], [75], [75], [89], [102], [102], [102], [102], [102], [102], [102], [102], [102], [102], [102], [102], [102], [102], [102], [102], [102], [102], [102], [102], [102], [102], [102], [102], [102], [102], [102], []]
letting durations = [[0], [3, 8, 9], [1, 3, 10], [3, 6, 7], [3, 9, 10], [5, 8, 9], [6, 7, 10], [2, 8, 10], [1, 3, 4], [3, 5, 6], [1, 3, 9], [3, 4, 8], [1, 3, 9], [2, 5, 6], [5, 6, 8], [4, 5, 6], [4, 5, 10], [7, 8, 9], [4, 5, 8], [3, 4, 9], [3, 4, 10], [7, 8, 9], [1, 8, 10], [3, 4, 8], [2, 3, 4], [3, 7, 8], [3, 7, 8], [5, 7, 8], [1, 8, 9], [3, 4, 9], [1, 4, 9], [3, 4, 5], [1, 2, 4], [2, 3, 4], [2, 5, 7], [4, 6, 9], [5, 6, 9], [1, 6, 8], [2, 6, 7], [5, 8, 9], [1, 4, 10], [3, 6, 10], [1, 5, 8], [3, 5, 6], [3, 4, 5], [3, 7, 8], [3, 5, 7], [1, 3, 8], [3, 4, 5], [3, 4, 5], [4, 6, 10], [1, 2, 8], [6, 7, 9], [1, 8, 9], [1, 2, 7], [1, 4, 6], [1, 6, 7], [2, 5, 6], [1, 2, 3], [3, 4, 9], [1, 5, 10], [4, 6, 10], [7, 9, 10], [2, 7, 8], [4, 8, 9], [1, 3, 10], [2, 6, 10], [2, 6, 9], [2, 3, 6], [2, 5, 6], [2, 4, 10], [1, 4, 5], [2, 3, 5], [1, 2, 9], [2, 4, 6], [5, 6, 7], [5, 6, 9], [1, 2, 4], [3, 6, 7], [2, 3, 6], [2, 3, 9], [5, 8, 10], [4, 5, 8], [2, 6, 10], [3, 4, 5], [2, 5, 6], [1, 5, 9], [2, 3, 8], [2, 4, 6], [6, 7, 9], [1, 3, 6], [1, 2, 3], [5, 9, 10], [2, 3, 9], [1, 4, 6], [4, 6, 9], [2, 3, 10], [6, 7, 10], [4, 7, 8], [2, 4, 9], [1, 3, 6], [0]]
letting resourceUsage = [[[0, 0, 0, 0]], [[4, 4, 5, 8], [4, 4, 4, 7], [4, 4, 4, 6]], [[2, 4, 5, 6], [2, 4, 5, 5], [2, 4, 3, 2]], [[5, 3, 8, 9], [4, 2, 4, 8], [3, 2, 1, 8]], [[5, 1, 10, 5], [3, 1, 4, 3], [3, 1, 2, 3]], [[5, 5, 3, 3], [5, 4, 2, 3], [5, 2, 2, 2]], [[5, 3, 9, 5], [4, 3, 6, 5], [3, 2, 3, 5]], [[4, 2, 5, 4], [4, 2, 4, 4], [4, 2, 4, 3]], [[3, 2, 8, 5], [3, 1, 6, 4], [2, 1, 6, 2]], [[5, 3, 5, 8], [2, 3, 4, 5], [2, 1, 3, 2]], [[5, 3, 4, 2], [4, 3, 3, 2], [4, 2, 3, 2]], [[5, 4, 1, 10], [4, 2, 1, 6], [4, 2, 1, 5]], [[5, 3, 9, 7], [3, 3, 8, 7], [2, 3, 8, 6]], [[4, 3, 4, 4], [4, 3, 4, 3], [4, 3, 4, 2]], [[5, 4, 7, 8], [3, 3, 4, 7], [3, 1, 3, 6]], [[2, 1, 3, 8], [2, 1, 2, 8], [2, 1, 2, 6]], [[3, 2, 5, 8], [3, 1, 5, 6], [2, 1, 5, 6]], [[2, 4, 7, 5], [2, 4, 7, 4], [2, 4, 6, 3]], [[4, 2, 5, 3], [3, 2, 5, 2], [2, 2, 3, 2]], [[3, 2, 7, 10], [3, 2, 6, 7], [2, 2, 5, 6]], [[3, 5, 5, 8], [3, 4, 4, 3], [3, 3, 4, 1]], [[3, 4, 9, 4], [2, 3, 7, 4], [2, 2, 4, 4]], [[4, 3, 8, 8], [3, 3, 8, 6], [2, 3, 8, 4]], [[4, 5, 9, 1], [4, 4, 8, 1], [4, 2, 7, 1]], [[4, 3, 5, 5], [4, 2, 5, 3], [4, 1, 5, 3]], [[4, 5, 2, 8], [3, 4, 2, 8], [3, 4, 1, 5]], [[3, 3, 6, 3], [2, 3, 5, 2], [1, 3, 5, 2]], [[2, 4, 6, 3], [2, 4, 6, 2], [1, 2, 5, 3]], [[2, 3, 1, 8], [1, 3, 1, 7], [1, 3, 1, 6]], [[2, 5, 5, 6], [2, 4, 3, 5], [2, 3, 2, 4]], [[2, 2, 5, 8], [1, 2, 3, 8], [1, 2, 2, 8]], [[2, 4, 7, 7], [1, 3, 5, 6], [1, 2, 3, 1]], [[2, 5, 8, 6], [2, 3, 6, 5], [2, 2, 5, 4]], [[5, 2, 6, 9], [5, 1, 5, 8], [5, 1, 5, 6]], [[4, 5, 8, 7], [3, 5, 4, 7], [1, 5, 3, 5]], [[3, 5, 6, 8], [2, 4, 3, 6], [2, 3, 2, 3]], [[5, 2, 9, 9], [3, 2, 6, 7], [1, 2, 5, 7]], [[4, 5, 7, 1], [3, 5, 6, 2], [3, 5, 6, 1]], [[3, 3, 6, 1], [2, 2, 5, 1], [1, 1, 5, 1]], [[2, 5, 6, 4], [1, 4, 6, 4], [1, 3, 3, 4]], [[5, 3, 6, 7], [4, 1, 4, 7], [2, 1, 2, 7]], [[3, 4, 8, 8], [3, 4, 6, 7], [2, 4, 2, 3]], [[4, 2, 2, 7], [3, 1, 2, 5], [3, 1, 2, 1]], [[2, 3, 6, 7], [2, 1, 4, 4], [2, 1, 2, 2]], [[2, 2, 6, 8], [1, 1, 4, 6], [1, 1, 2, 3]], [[4, 3, 8, 6], [3, 2, 7, 5], [3, 2, 7, 3]], [[3, 1, 7, 8], [3, 1, 6, 5], [2, 1, 5, 5]], [[2, 1, 8, 7], [1, 1, 3, 7], [1, 1, 1, 7]], [[4, 5, 4, 9], [4, 3, 3, 7], [4, 1, 2, 5]], [[1, 4, 5, 10], [1, 3, 5, 9], [1, 3, 5, 8]], [[4, 4, 8, 7], [4, 4, 8, 5], [4, 4, 7, 3]], [[4, 3, 7, 8], [4, 3, 7, 7], [2, 1, 4, 6]], [[4, 3, 8, 8], [2, 3, 6, 6], [2, 2, 6, 6]], [[4, 5, 9, 10], [4, 4, 9, 9], [3, 3, 9, 8]], [[5, 3, 3, 9], [4, 2, 2, 9], [2, 1, 1, 8]], [[5, 5, 6, 8], [4, 4, 5, 6], [2, 3, 5, 4]], [[1, 3, 5, 3], [1, 3, 5, 1], [1, 1, 5, 1]], [[5, 5, 2, 4], [3, 4, 2, 3], [1, 4, 2, 3]], [[5, 3, 9, 8], [4, 2, 6, 5], [3, 2, 3, 3]], [[3, 3, 7, 6], [3, 3, 6, 6], [2, 3, 4, 6]], [[5, 4, 8, 3], [4, 2, 6, 2], [2, 2, 4, 2]], [[3, 4, 7, 4], [3, 3, 7, 3], [3, 1, 7, 2]], [[5, 3, 7, 8], [3, 3, 5, 7], [3, 3, 5, 5]], [[3, 5, 7, 10], [2, 4, 6, 9], [2, 4, 3, 7]], [[3, 4, 8, 9], [3, 3, 8, 8], [2, 2, 8, 8]], [[4, 5, 6, 5], [2, 4, 6, 3], [2, 3, 6, 3]], [[3, 4, 6, 5], [3, 4, 5, 4], [1, 4, 5, 4]], [[4, 3, 8, 9], [3, 3, 4, 7], [1, 3, 3, 5]], [[3, 4, 6, 3], [1, 4, 4, 3], [1, 4, 1, 2]], [[4, 2, 6, 2], [4, 2, 4, 1], [3, 2, 3, 1]], [[2, 5, 8, 6], [2, 4, 4, 6], [2, 3, 4, 5]], [[3, 3, 6, 7], [3, 2, 6, 7], [3, 2, 6, 6]], [[3, 2, 10, 6], [2, 2, 8, 6], [2, 1, 8, 6]], [[4, 5, 6, 6], [3, 4, 3, 4], [1, 3, 2, 2]], [[3, 3, 9, 6], [2, 3, 7, 4], [1, 1, 7, 4]], [[2, 4, 10, 9], [2, 3, 5, 7], [1, 3, 4, 7]], [[3, 5, 9, 8], [3, 5, 5, 6], [3, 5, 4, 4]], [[2, 3, 8, 8], [2, 1, 8, 7], [1, 1, 8, 7]], [[3, 4, 6, 7], [3, 4, 4, 4], [3, 4, 4, 1]], [[2, 2, 3, 3], [1, 1, 3, 2], [1, 1, 3, 1]], [[3, 4, 7, 7], [2, 3, 6, 7], [2, 2, 4, 3]], [[4, 3, 2, 4], [3, 3, 1, 4], [1, 3, 1, 4]], [[5, 3, 8, 8], [4, 2, 4, 7], [4, 2, 3, 7]], [[2, 2, 3, 9], [2, 2, 2, 4], [2, 2, 2, 2]], [[5, 4, 4, 2], [4, 4, 4, 1], [2, 2, 4, 1]], [[1, 3, 8, 9], [1, 1, 6, 9], [1, 1, 6, 7]], [[4, 4, 9, 1], [3, 3, 7, 2], [3, 3, 7, 1]], [[3, 2, 6, 6], [2, 2, 4, 5], [2, 2, 4, 4]], [[5, 3, 7, 5], [3, 2, 5, 2], [3, 2, 5, 1]], [[3, 2, 6, 9], [3, 1, 4, 7], [3, 1, 3, 3]], [[2, 4, 10, 7], [2, 3, 9, 5], [1, 2, 8, 5]], [[3, 3, 2, 7], [3, 1, 1, 5], [3, 1, 1, 4]], [[3, 3, 4, 7], [2, 3, 4, 5], [2, 1, 3, 1]], [[4, 3, 6, 6], [4, 3, 5, 2], [3, 3, 4, 2]], [[3, 4, 8, 10], [2, 3, 5, 7], [2, 3, 3, 6]], [[4, 4, 5, 4], [3, 4, 3, 2], [3, 4, 3, 1]], [[5, 5, 6, 6], [5, 5, 3, 3], [5, 5, 2, 1]], [[1, 2, 6, 8], [1, 2, 4, 8], [1, 2, 4, 7]], [[4, 4, 2, 7], [4, 3, 1, 7], [3, 3, 1, 7]], [[2, 5, 2, 7], [2, 5, 2, 6], [2, 5, 2, 5]], [[3, 3, 9, 7], [3, 3, 6, 6], [1, 3, 4, 6]], [[0, 0, 0, 0]]]
